ssat_solver_solve2
#level: 70
Abc_NtkNodeNum(s->pNtk): 171  , BDD limit: 10240
Build BDD success
level 69: 1 element
Exist
level 68: 1 element
Random
level 67: 1 element
Exist
level 66: 1 element
Random
level 65: 1 element
Exist
level 64: 1 element
Random
level 63: 1 element
Exist
level 62: 1 element
Random
level 61: 1 element
Exist
level 60: 1 element
Random
level 59: 1 element
Exist
level 58: 1 element
Random
level 57: 1 element
Exist
level 56: 1 element
Random
level 55: 1 element
Exist
level 54: 1 element
Random
level 53: 1 element
Exist
level 52: 1 element
Random
level 51: 1 element
Exist
level 50: 1 element
Random
level 49: 1 element
Exist
level 48: 1 element
Random
level 47: 1 element
Exist
level 46: 1 element
Random
level 45: 1 element
Exist
level 44: 1 element
Random
level 43: 1 element
Exist
level 42: 1 element
Random
level 41: 1 element
Exist
level 40: 1 element
Random
level 39: 1 element
Exist
level 38: 1 element
Random
level 37: 1 element
Exist
level 36: 1 element
Random
level 35: 1 element
Exist
level 34: 1 element
Random
level 33: 1 element
Exist
level 32: 1 element
Random
level 31: 1 element
Exist
level 30: 1 element
Random
level 29: 1 element
Exist
level 28: 1 element
Random
level 27: 1 element
Exist
level 26: 1 element
Random
level 25: 1 element
Exist
level 24: 1 element
Random
level 23: 1 element
Exist
level 22: 1 element
Random
level 21: 1 element
Exist
level 20: 1 element
Random
level 19: 1 element
Exist
level 18: 1 element
Random
level 17: 1 element
Exist
level 16: 1 element
Random
level 15: 1 element
Exist
level 14: 1 element
Random
level 13: 1 element
Exist
level 12: 1 element
Random
level 11: 1 element
Exist
level 10: 1 element
Random
level 9: 1 element
Exist
level 8: 1 element
Random
level 7: 1 element
Exist
level 6: 1 element
Random
level 5: 1 element
Exist
level 4: 1 element
Random
level 3: 1 element
Exist
level 2: 1 element
Random
level 1: 1 element
Exist
level 0: 1 element
Random
c ssat solving in ABC
#var: 70
s SATISFIABLE
  > Upper bound = 1.000000e+00
  > Lower bound = 1.000000e+00
FINISHED CPU 0.11 MEM 0 MAXMEM 0 STALE 0 MAXMEM_RSS 0
<time name="ALL">110</time>
real 0.27
user 0.17
sys 0.13
